25414,157,25342,17451,18143,5131,25159,23274,9766,14962,21286,5037,19264,17070,4742,11329,10615,10906,11503,4989,9400,13444,7462,17238,16899,1624,8377,2905,6517,7746,724,12528,542,1580,8870,11278,11694,12310,5033,20907,21866,21784,24150,10442,23093,8824,25286,9985,12008,25677,2537,3348,5934,5933,20978,7125,21994,21731,25393,25414